<number of tasks>
50

<cycle time>
1000

<order strength>
0.597


<task times>
1 357
2 472
3 601
4 565
5 555
6 568
7 534
8 373
9 440
10 523
11 474
12 483
13 647
14 457
15 483
16 638
17 280
18 533
19 496
20 424
21 427
22 583
23 472
24 585
25 611
26 371
27 576
28 574
29 526
30 634
31 395
32 385
33 651
34 556
35 502
36 432
37 613
38 510
39 647
40 501
41 410
42 473
43 382
44 583
45 454
46 565
47 255
48 604
49 568
50 540

<precedence relations>
1,8
1,9
1,16
2,5
2,6
3,7
4,6
5,9
5,10
6,9
6,10
6,13
7,11
7,12
7,14
7,18
9,17
9,18
9,19
10,16
10,23
11,15
11,16
11,20
12,15
12,32
13,18
13,19
13,34
14,17
14,22
15,24
16,26
17,20
17,21
18,22
20,24
20,25
21,23
21,24
22,30
22,36
22,41
23,25
23,27
23,29
23,30
24,26
24,28
24,31
25,36
26,34
26,35
26,36
27,32
27,33
27,46
28,33
28,36
29,48
29,49
30,35
30,44
31,33
31,37
32,37
32,41
33,38
33,40
33,42
34,41
35,47
36,38
36,39
37,47
38,44
38,45
39,42
39,43
39,46
40,47
42,49
43,50
44,47
44,48

<end>
